(set-info :source |printed by MathSAT|)
(declare-fun .y.11 () Int)
(declare-fun .y.15 () Int)
(declare-fun .y.12 () Int)
(declare-fun main@%shadow.mem1.0_0_3 () (Array Int Int))
(declare-fun .y.17 () (Array Int Int))
(declare-fun main@%shadow.mem.0_0_3 () (Array Int Int))
(declare-fun .y.18 () (Array Int Int))
(declare-fun main@%tmp10.i_0_3 () Int)
(declare-fun .y.19 () Int)
(declare-fun main@%tmp8.i_0_3 () Int)
(declare-fun .y.20 () Int)
(declare-fun main@%i.1.i_0_1 () Int)
(declare-fun .y.21 () Int)
(declare-fun main@%tmp2.i_0_3 () Int)
(declare-fun .y.22 () Int)
(declare-fun .loc.13 () Bool)
(declare-fun .loc.23 () Bool)
(declare-fun .loc.14 () Bool)
(declare-fun .loc.24 () Bool)
(declare-fun main@%tmp47.i_0 () Bool)
(declare-fun main@%tmp38.i_0_0 () Int)
(declare-fun main@%tmp45.i_0 () Int)
(declare-fun main@bb36.i_0 () Bool)
(declare-fun main@%shadow.mem.1_1 () (Array Int Int))
(declare-fun main@%shadow.mem.1_0 () (Array Int Int))
(declare-fun |tuple(main@bb42.i_0, main@bb53.i_0)| () Bool)
(declare-fun main@bb42.i_0 () Bool)
(declare-fun main@%_5_0 () (Array Int Int))
(declare-fun main@%tmp44.i_0_0 () Int)
(declare-fun main@%tmp44.i_0 () Int)
(declare-fun main@bb32.i_0_0 () Bool)
(declare-fun main@%tmp41.i_0 () Bool)
(declare-fun |tuple(main@bb36.i_0, main@bb53.i_0)| () Bool)
(define-fun .def_8 () Int (! .y.11 :next |.y.15|))
(define-fun .def_10 () Int (! .y.12 :next |.y.16|))
(define-fun .def_12 () (Array Int Int) (! main@%shadow.mem1.0_0_3 :next |.y.17|))
(define-fun .def_14 () (Array Int Int) (! main@%shadow.mem.0_0_3 :next |.y.18|))
(define-fun .def_16 () Int (! main@%tmp10.i_0_3 :next |.y.19|))
(define-fun .def_18 () Int (! main@%tmp8.i_0_3 :next |.y.20|))
(define-fun .def_20 () Int (! main@%i.1.i_0_1 :next |.y.21|))
(define-fun .def_22 () Int (! main@%tmp2.i_0_3 :next |.y.22|))
(define-fun .def_24 () Bool (! .loc.13 :next |.loc.23|))
(define-fun .def_26 () Bool (! .loc.14 :next |.loc.24|))
(define-fun .def_39 () Bool (! main@%tmp47.i_0 :next |.xtv.1|))
(define-fun .def_41 () Int (! main@%tmp38.i_0_0 :next |.xtv.2|))
(define-fun .def_42 () Int (! main@%tmp45.i_0 :next |.xtv.3|))
(define-fun .def_47 () Bool (! main@bb36.i_0 :next |.xtv.4|))
(define-fun .def_50 () (Array Int Int) (! main@%shadow.mem.1_1 :next |.xtv.5|))
(define-fun .def_59 () (Array Int Int) (! main@%shadow.mem.1_0 :next |.xtv.6|))
(define-fun .def_61 () Bool (! |tuple(main@bb42.i_0, main@bb53.i_0)| :next |.xtv.7|))
(define-fun .def_68 () Bool (! main@bb42.i_0 :next |.xtv.8|))
(define-fun .def_72 () (Array Int Int) (! main@%_5_0 :next |.xtv.9|))
(define-fun .def_82 () Int (! main@%tmp44.i_0_0 :next |.xtv.10|))
(define-fun .def_135 () Int (! main@%tmp44.i_0 :next |.xtv.11|))
(define-fun .def_141 () Bool (! main@bb32.i_0_0 :next |.xtv.12|))
(define-fun .def_173 () Bool (! main@%tmp41.i_0 :next |.xtv.13|))
(define-fun .def_182 () Bool (! |tuple(main@bb36.i_0, main@bb53.i_0)| :next |.xtv.14|))
(define-fun .def_150 () Bool (not .def_24))
(define-fun .def_29 () Bool (not .def_26))
(define-fun .def_293 () Bool (! (and .def_29 .def_150) :init true))
(define-fun .def_238 () Int (select .def_12 .def_41))
(define-fun .def_283 () Bool (= .def_238 10))
(define-fun .def_279 () Int (select .def_14 .def_82))
(define-fun .def_280 () Bool (= .def_279 20))
(define-fun .def_281 () Bool (not .def_280))
(define-fun .def_97 () Int (* (- 1) .def_82))
(define-fun .def_273 () Int (+ .def_20 .def_97))
(define-fun .def_274 () Int (+ .def_16 .def_273))
(define-fun .def_275 () Bool (= .def_274 0))
(define-fun .def_251 () Int (* (- 1) .def_41))
(define-fun .def_252 () Int (+ .def_20 .def_251))
(define-fun .def_253 () Int (+ .def_18 .def_252))
(define-fun .def_254 () Bool (= .def_253 0))
(define-fun .def_197 () Bool (<= .def_22 .def_20))
(define-fun .def_198 () Bool (not .def_197))
(define-fun .def_269 () Bool (and .def_198 .def_254))
(define-fun .def_246 () Bool (<= .def_41 0))
(define-fun .def_247 () Bool (not .def_246))
(define-fun .def_242 () Bool (<= .def_18 0))
(define-fun .def_248 () Bool (or .def_242 .def_247))
(define-fun .def_270 () Bool (and .def_248 .def_269))
(define-fun .def_243 () Bool (not .def_242))
(define-fun .def_271 () Bool (and .def_243 .def_270))
(define-fun .def_276 () Bool (and .def_271 .def_275))
(define-fun .def_92 () Bool (<= .def_82 0))
(define-fun .def_93 () Bool (not .def_92))
(define-fun .def_88 () Bool (<= .def_16 0))
(define-fun .def_94 () Bool (or .def_88 .def_93))
(define-fun .def_277 () Bool (and .def_94 .def_276))
(define-fun .def_89 () Bool (not .def_88))
(define-fun .def_278 () Bool (and .def_89 .def_277))
(define-fun .def_282 () Bool (and .def_278 .def_281))
(define-fun .def_284 () Bool (and .def_282 .def_283))
(define-fun .def_285 () Bool (and .def_26 .def_284))
(define-fun .def_286 () Bool (and .def_150 .def_285))
(define-fun .def_287 () Bool (and .loc.23 .def_286))
(define-fun .def_266 () Bool (= .y.20 .def_20))
(define-fun .def_260 () Bool (= .y.21 0))
(define-fun .def_202 () Bool (not .loc.23))
(define-fun .def_258 () Bool (and .def_24 .def_202))
(define-fun .def_259 () Bool (and .def_29 .def_258))
(define-fun .def_261 () Bool (and .def_259 .def_260))
(define-fun .def_139 () Bool (<= .def_22 .def_8))
(define-fun .def_262 () Bool (and .def_139 .def_261))
(define-fun .def_204 () Bool (= .def_12 .y.17))
(define-fun .def_263 () Bool (and .def_204 .def_262))
(define-fun .def_206 () Bool (= .def_14 .y.18))
(define-fun .def_264 () Bool (and .def_206 .def_263))
(define-fun .def_31 () Bool (= .def_16 .y.19))
(define-fun .def_265 () Bool (and .def_31 .def_264))
(define-fun .def_267 () Bool (and .def_265 .def_266))
(define-fun .def_33 () Bool (= .def_22 .y.22))
(define-fun .def_268 () Bool (and .def_33 .def_267))
(define-fun .def_288 () Bool (or .def_268 .def_287))
(define-fun .def_78 () Bool (not .def_47))
(define-fun .def_255 () Bool (or .def_78 .def_254))
(define-fun .def_249 () Bool (or .def_78 .def_248))
(define-fun .def_244 () Bool (or .def_78 .def_243))
(define-fun .def_239 () Bool (= .def_82 .def_238))
(define-fun .def_240 () Bool (or .def_78 .def_239))
(define-fun .def_234 () Bool (= .def_82 10))
(define-fun .def_235 () Bool (= .def_173 .def_234))
(define-fun .def_236 () Bool (or .def_78 .def_235))
(define-fun .def_228 () Int (* (- 1) .def_135))
(define-fun .def_229 () Int (+ .def_20 .def_228))
(define-fun .def_230 () Int (+ .def_16 .def_229))
(define-fun .def_231 () Bool (= .def_230 0))
(define-fun .def_69 () Bool (not .def_68))
(define-fun .def_232 () Bool (or .def_69 .def_231))
(define-fun .def_220 () Bool (<= .def_135 0))
(define-fun .def_221 () Bool (not .def_220))
(define-fun .def_222 () Bool (or .def_88 .def_221))
(define-fun .def_223 () Bool (or .def_69 .def_222))
(define-fun .def_218 () Bool (or .def_69 .def_89))
(define-fun .def_214 () Int (select .def_14 .def_135))
(define-fun .def_215 () Bool (= .def_42 .def_214))
(define-fun .def_216 () Bool (or .def_69 .def_215))
(define-fun .def_210 () Int (* (- 1) .y.21))
(define-fun .def_211 () Int (+ .def_20 .def_210))
(define-fun .def_212 () Bool (= .def_211 (- 1)))
(define-fun .def_187 () Bool (and .def_47 .def_182))
(define-fun .def_194 () Bool (not .def_187))
(define-fun .def_193 () Bool (not .def_173))
(define-fun .def_195 () Bool (or .def_193 .def_194))
(define-fun .def_186 () Bool (and .def_61 .def_68))
(define-fun .def_190 () Bool (not .def_186))
(define-fun .def_191 () Bool (or .def_39 .def_190))
(define-fun .def_188 () Bool (or .def_186 .def_187))
(define-fun .def_183 () Bool (not .def_182))
(define-fun .def_184 () Bool (or .def_47 .def_183))
(define-fun .def_62 () Bool (not .def_61))
(define-fun .def_180 () Bool (or .def_62 .def_68))
(define-fun .def_176 () Bool (= .def_42 20))
(define-fun .def_177 () Bool (= .def_39 .def_176))
(define-fun .def_178 () Bool (or .def_69 .def_177))
(define-fun .def_167 () Bool (and .def_47 .def_68))
(define-fun .def_172 () Bool (not .def_167))
(define-fun .def_174 () Bool (or .def_172 .def_173))
(define-fun .def_169 () Bool (and .def_47 .def_141))
(define-fun .def_170 () Bool (or .def_78 .def_169))
(define-fun .def_168 () Bool (or .def_69 .def_167))
(define-fun .def_171 () Bool (and .def_168 .def_170))
(define-fun .def_175 () Bool (and .def_171 .def_174))
(define-fun .def_179 () Bool (and .def_175 .def_178))
(define-fun .def_181 () Bool (and .def_179 .def_180))
(define-fun .def_185 () Bool (and .def_181 .def_184))
(define-fun .def_189 () Bool (and .def_185 .def_188))
(define-fun .def_192 () Bool (and .def_189 .def_191))
(define-fun .def_196 () Bool (and .def_192 .def_195))
(define-fun .def_199 () Bool (and .def_196 .def_198))
(define-fun .def_200 () Bool (and .def_26 .def_199))
(define-fun .def_201 () Bool (and .def_150 .def_200))
(define-fun .def_203 () Bool (and .def_201 .def_202))
(define-fun .def_205 () Bool (and .def_203 .def_204))
(define-fun .def_207 () Bool (and .def_205 .def_206))
(define-fun .def_208 () Bool (and .def_31 .def_207))
(define-fun .def_209 () Bool (and .def_33 .def_208))
(define-fun .def_213 () Bool (and .def_209 .def_212))
(define-fun .def_217 () Bool (and .def_213 .def_216))
(define-fun .def_219 () Bool (and .def_217 .def_218))
(define-fun .def_224 () Bool (and .def_219 .def_223))
(define-fun .def_233 () Bool (and .def_224 .def_232))
(define-fun .def_237 () Bool (and .def_233 .def_236))
(define-fun .def_241 () Bool (and .def_237 .def_240))
(define-fun .def_245 () Bool (and .def_241 .def_244))
(define-fun .def_250 () Bool (and .def_245 .def_249))
(define-fun .def_256 () Bool (and .def_250 .def_255))
(define-fun .def_35 () Bool (= .def_18 .y.20))
(define-fun .def_257 () Bool (and .def_35 .def_256))
(define-fun .def_289 () Bool (or .def_257 .def_288))
(define-fun .def_290 () Bool (and .loc.24 .def_289))
(define-fun .def_165 () Bool (= .def_8 .y.20))
(define-fun .def_162 () Bool (<= .y.22 0))
(define-fun .def_163 () Bool (not .def_162))
(define-fun .def_159 () Bool (<= .y.21 0))
(define-fun .def_160 () Bool (not .def_159))
(define-fun .def_156 () Bool (<= .y.19 0))
(define-fun .def_157 () Bool (not .def_156))
(define-fun .def_154 () Bool (= .y.15 0))
(define-fun .def_151 () Bool (and .loc.23 .def_150))
(define-fun .def_152 () Bool (and .def_29 .def_151))
(define-fun .def_37 () Bool (not .loc.24))
(define-fun .def_153 () Bool (and .def_37 .def_152))
(define-fun .def_155 () Bool (and .def_153 .def_154))
(define-fun .def_158 () Bool (and .def_155 .def_157))
(define-fun .def_161 () Bool (and .def_158 .def_160))
(define-fun .def_164 () Bool (and .def_161 .def_163))
(define-fun .def_166 () Bool (and .def_164 .def_165))
(define-fun .def_291 () Bool (or .def_166 .def_290))
(define-fun .def_148 () Bool (= .def_20 .y.21))
(define-fun .def_142 () Bool (and .def_39 .def_141))
(define-fun .def_40 () Bool (not .def_39))
(define-fun .def_146 () Bool (or .def_40 .def_142))
(define-fun .def_143 () Bool (not .def_142))
(define-fun .def_140 () Bool (not .def_139))
(define-fun .def_144 () Bool (or .def_140 .def_143))
(define-fun .def_136 () Bool (= .def_18 .def_135))
(define-fun .def_137 () Bool (or .def_40 .def_136))
(define-fun .def_129 () Int (* (- 1) .def_42))
(define-fun .def_130 () Int (+ .def_20 .def_129))
(define-fun .def_131 () Int (+ .def_8 .def_130))
(define-fun .def_132 () Bool (= .def_131 0))
(define-fun .def_133 () Bool (or .def_40 .def_132))
(define-fun .def_120 () Bool (<= .def_42 0))
(define-fun .def_121 () Bool (not .def_120))
(define-fun .def_116 () Bool (<= .def_20 0))
(define-fun .def_122 () Bool (or .def_116 .def_121))
(define-fun .def_123 () Bool (or .def_40 .def_122))
(define-fun .def_117 () Bool (not .def_116))
(define-fun .def_118 () Bool (or .def_40 .def_117))
(define-fun .def_112 () Bool (= .def_41 10))
(define-fun .def_113 () Bool (= .def_68 .def_112))
(define-fun .def_114 () Bool (or .def_40 .def_113))
(define-fun .def_105 () Bool (and .def_39 .def_61))
(define-fun .def_109 () Bool (or .def_62 .def_105))
(define-fun .def_106 () Bool (not .def_105))
(define-fun .def_107 () Bool (or .def_68 .def_106))
(define-fun .def_100 () Int (+ .def_16 .def_97))
(define-fun .def_101 () Int (+ .def_8 .def_100))
(define-fun .def_102 () Bool (= .def_101 0))
(define-fun .def_103 () Bool (or .def_62 .def_102))
(define-fun .def_95 () Bool (or .def_62 .def_94))
(define-fun .def_90 () Bool (or .def_62 .def_89))
(define-fun .def_83 () (Array Int Int) (store .def_14 .def_82 20))
(define-fun .def_84 () Bool (= .def_72 .def_83))
(define-fun .def_85 () Bool (or .def_62 .def_84))
(define-fun .def_79 () Bool (or .def_39 .def_78))
(define-fun .def_48 () Bool (and .def_39 .def_47))
(define-fun .def_76 () Bool (or .def_48 .def_61))
(define-fun .def_73 () Bool (= .def_59 .def_72))
(define-fun .def_74 () Bool (or .def_62 .def_73))
(define-fun .def_49 () Bool (not .def_48))
(define-fun .def_70 () Bool (or .def_49 .def_69))
(define-fun .def_65 () Bool (= .def_14 .def_50))
(define-fun .def_66 () Bool (or .def_49 .def_65))
(define-fun .def_60 () Bool (= .y.18 .def_59))
(define-fun .def_63 () Bool (or .def_60 .def_62))
(define-fun .def_55 () Int (* (- 1) .y.15))
(define-fun .def_56 () Int (+ .def_8 .def_55))
(define-fun .def_57 () Bool (= .def_56 (- 1)))
(define-fun .def_51 () Bool (= .y.18 .def_50))
(define-fun .def_52 () Bool (or .def_49 .def_51))
(define-fun .def_43 () (Array Int Int) (store .def_12 .def_42 .def_41))
(define-fun .def_44 () Bool (= .y.17 .def_43))
(define-fun .def_45 () Bool (or .def_40 .def_44))
(define-fun .def_28 () Bool (and .def_24 .loc.23))
(define-fun .def_30 () Bool (and .def_28 .def_29))
(define-fun .def_32 () Bool (and .def_30 .def_31))
(define-fun .def_34 () Bool (and .def_32 .def_33))
(define-fun .def_36 () Bool (and .def_34 .def_35))
(define-fun .def_38 () Bool (and .def_36 .def_37))
(define-fun .def_46 () Bool (and .def_38 .def_45))
(define-fun .def_53 () Bool (and .def_46 .def_52))
(define-fun .def_58 () Bool (and .def_53 .def_57))
(define-fun .def_64 () Bool (and .def_58 .def_63))
(define-fun .def_67 () Bool (and .def_64 .def_66))
(define-fun .def_71 () Bool (and .def_67 .def_70))
(define-fun .def_75 () Bool (and .def_71 .def_74))
(define-fun .def_77 () Bool (and .def_75 .def_76))
(define-fun .def_80 () Bool (and .def_77 .def_79))
(define-fun .def_86 () Bool (and .def_80 .def_85))
(define-fun .def_91 () Bool (and .def_86 .def_90))
(define-fun .def_96 () Bool (and .def_91 .def_95))
(define-fun .def_104 () Bool (and .def_96 .def_103))
(define-fun .def_108 () Bool (and .def_104 .def_107))
(define-fun .def_110 () Bool (and .def_108 .def_109))
(define-fun .def_115 () Bool (and .def_110 .def_114))
(define-fun .def_119 () Bool (and .def_115 .def_118))
(define-fun .def_124 () Bool (and .def_119 .def_123))
(define-fun .def_134 () Bool (and .def_124 .def_133))
(define-fun .def_138 () Bool (and .def_134 .def_137))
(define-fun .def_145 () Bool (and .def_138 .def_144))
(define-fun .def_147 () Bool (and .def_145 .def_146))
(define-fun .def_149 () Bool (and .def_147 .def_148))
(define-fun .def_292 () Bool (! (or .def_149 .def_291) :trans true))
(define-fun .def_294 () Bool (and .def_24 .def_26))
(define-fun .def_295 () Bool (! (not .def_294) :invar-property 0))
(assert true)
